  2   0   0   0   0   0   0   0   0   0   0   0   0   0   0   0   0   0   0   0   0   0   0   0   0   0   0   0   0   0   0   0   0   0   0   0   0   0   0   0   0   0   0   0   0   0   0   0   0   0   0   0   0   0   0   0   0   0   0   0   0   0   0   0   0   0   0   0   0   0   0   0   0   0   0   0   0   0   0   0   0   0   0   0   0   0   0   0   0   0   0   0   0   0   0   0   0   0   0   0   0   0   0   0   0   0   0   0   0   0   0   0   0   0   0   0   0   0   0   0   0   0   0   0   0   0   0   0   0   0   0   0   0   0   0   0   0   0   0   0   0   0   0   0   0   0   0   0   0   0   0   0   0   0   0   0   0   0   0   0   0   0   0   0   0   0   0   0   0   0   0   0   0   0   0   0   0   0   0   0   0   0   0   0   0   0   0   0   0   0   0   0   0   0   0   0   0   0   0   0   0   0   0   0   0   0   0   0   0   0   0   0   0   0   0   0   0   0   0   0   0   0   0   0   0   0   0   0   0   0   0   0   0   0   0   0   0   0   0   0   0   0   0   0   0   0   0   0   0   0   0   0   0   0   0   0   0   0   0   0   0   0   0   0   0   0   0   0   0   0   0   0   0   0   0   0   0   0   0   0   0   0   0   0   0   0   0   0   0   0   0   0   0   0   0   0   0   0   0   0   0   0   0   0   0   0   0   0   0   0   0   0   0   0   0   0   0   0   0   0   0   0   0   0   0   0   0   0   0   0   0   0   0   0   0   0   0   0   0   0   0   0   0   0   0   0   0   0   0   0   0   0   0   0   0   0   0   0   0   0   0   0   0   0   0   0   0   0   0   0   0   0   0   0   0   0   0   0   0   0   0   0   0   0   0   0   0   0   0   0   0   0   0   0   0   0   0   0   0   0   0   0   0   0   0   0   0   0   0   0   0   0   0   0   0   0   0   0   0   0   0   0   0   0   0   0   0   0   0   0   0   0   0   0   0   0   0   0   0   0   0   0   0   0   0   0   0   0   0   0   0   0   0   0   0   0   0   0   0   0   0   0   0   0   0   0   0   0   0   0   0   0   0   0   0   0   0   0   0   0   0   0   0   0   0   0   0   0   0   0   0   0   0   0   0   0   0   0   0   0   0   0   0   0   0   0   0   0   0   0   0   0   0   0   0   0   0   0   0   0   0   0   0   0   0   0   0   0   0   0   0   0   0   0   0   0   0   0   0   0   0   0   0   0   0   0   0   0   0   0   0   0   0   0   0   0   0   0   0   0   0   0   0   0   0   0   0   0   0   0   0   0   0   0   0   0   0   0   0   0   0   0   0   0   0   0   0   0   0   0   0   0   0   0   0   0   0   0   0   0   0   0   0   0   0   0   0   0   0   0   0   0   0   0   0   0   0   0   0   0   0   0   0   0   0   0   0   0   0   0   0   0   0   0   0   0   0   0   0   0   0   0   0   0   0   0   0   0   0   0   0   0   0   0   0   0   0   0   0   0   0   0   0   0   0   0   0   0   0   0   0   0   0   0   0   0   0   0   0   0   0   0   0   0   0   0   0   0   0   0   0   0   0   0   0   0   0   0   0   0   0   0   0   0   0   0   0   0   0   0   0   0   0   0   0   0   0   0   0   0   0   0   0   0   0   0   0   0   0   0   0   0   0   0   0   0   0   0   0   0   0   0   0   0   0   0   0   0   0   0   0   0   0   0   0   0   0   0   0   0   0   0   0   0   0   0   0   0   0   0   0   0   0   0   0   0   0   0   0   0   0   0   0   0   0   0   0   0   0   0   0   0   0   0   0   0   0   0   0   0   0   0   0   0   0   0   0   0   0   0   0   0   0   0   0   0   0   0   0   0   0   0   0   0   0   0   0   0   0   0   0   0   0   0   0   0   0   0   0   0   0   0   0   0   0   0   0   0   0   0   0   0   0   0   0   0   0   0   0   0   0   0   0   0   0   0   0   0   0   0   0   0   0   0   0   0   0   0   0   0   0   0   0   0   0   0   0   0   0   0   0   0   0   0   0   0   0   0   0   0   0   0   0   0   0   0   0   0   0   0   0   0   0   0   0   0   0   0   0   0   0   0   0   0   0   0   0   0   0   0   0   0   0   0   0   0   0   0   0   0   0   0   0   0   0   0   0   0   0   0   0   0   0   0   0   0   0   0   0   0   0   0   0   0   0   0   0   0   0   0   0   0   0   0   0   0   0   0   0   0   0   0   0   0   0   0   0   0   0   0   0   0   0   0   0   0   0   0   0   0 
REMAINING SPACE:      94
ACCUMULATED PRIORITY: 200
EXECUTION TIME:       0.000196800
QTY PRI VAL
[2] 100 203
[0]  98 203
[0]  94 200
[0]  98 212
[0]  91 200
[0]  96 212
[0]  91 202
[0]  93 210
[0]  87 209
[0]  90 218
[0]  92 223
[0]  94 228
[0]  96 236
[0]  91 224
[0]  91 224
[0]  93 230
[0]  92 228
[0]  92 230
[0]  81 203
[0]  94 237
[0]  87 221
[0] 100 255
[0]  83 212
[0]  95 247
[0]  83 216
[0]  77 204
[0] 100 265
[0]  94 251
[0]  85 227
[0]  80 214
[0]  84 225
[0]  98 265
[0]  98 265
[0]  85 230
[0]  82 222
[0]  79 214
[0]  84 229
[0]  75 205
[0]  85 233
[0]  82 225
[0]  97 269
[0]  84 234
[0]  98 274
[0]  96 270
[0]  93 263
[0]  88 249
[0]  95 269
[0]  73 207
[0]  77 219
[0]  72 205
[0]  92 262
[0]  91 262
[0]  83 239
[0]  88 254
[0]  88 254
[0]  75 217
[0]  76 220
[0]  96 280
[0]  74 217
[0]  81 238
[0]  81 238
[0]  71 210
[0]  99 293
[0] 100 296
[0]  67 200
[0]  78 233
[0]  87 260
[0]  70 210
[0]  81 244
[0]  77 232
[0]  95 288
[0]  99 302
[0]  73 223
[0]  99 303
[0]  98 301
[0]  93 286
[0]  87 268
[0]  87 268
[0]  74 228
[0] 100 310
[0]  68 211
[0]  68 211
[0]  85 264
[0]  67 209
[0]  67 209
[0]  92 287
[0]  95 297
[0]  92 288
[0]  83 261
[0]  86 271
[0]  90 284
[0]  91 289
[0]  90 288
[0]  75 241
[0]  94 303
[0]  66 213
[0]  76 247
[0]  80 261
[0]  72 235
[0]  87 285
[0]  76 250
[0]  85 280
[0]  99 327
[0]  79 261
[0]  75 248
[0]  72 239
[0]  67 223
[0]  91 303
[0]  81 270
[0]  91 304
[0]  70 234
[0]  91 306
[0]  95 320
[0]  62 209
[0]  86 290
[0] 100 338
[0]  82 278
[0]  64 217
[0]  84 285
[0]  66 224
[0]  83 282
[0]  77 262
[0]  69 235
[0]  88 300
[0]  90 308
[0]  98 337
[0]  99 341
[0]  83 287
[0]  82 284
[0]  69 239
[0]  98 340
[0]  59 205
[0]  81 282
[0]  99 345
[0]  87 304
[0]  68 238
[0]  89 312
[0]  59 208
[0]  78 275
[0]  71 251
[0]  76 269
[0]  73 259
[0]  89 316
[0]  98 348
[0]  87 309
[0]  77 275
[0]  83 297
[0]  60 216
[0]  99 358
[0]  74 268
[0]  81 295
[0]  74 270
[0]  82 300
[0]  94 344
[0]  69 253
[0]  89 327
[0]  81 298
[0]  94 346
[0]  82 302
[0] 100 371
[0]  95 354
[0] 100 373
[0]  71 265
[0]  79 296
[0]  83 313
[0]  90 340
[0]  96 363
[0]  71 270
[0]  78 297
[0]  99 377
[0]  80 305
[0]  81 309
[0]  81 309
[0]  74 283
[0]  93 356
[0]  71 272
[0]  93 357
[0]  59 227
[0]  91 351
[0]  92 355
[0]  91 352
[0]  55 213
[0]  88 341
[0]  82 318
[0]  78 303
[0]  61 237
[0]  67 261
[0]  80 312
[0]  55 215
[0]  70 274
[0]  82 321
[0]  84 329
[0]  82 322
[0]  71 279
[0]  73 287
[0]  91 359
[0]  73 288
[0]  86 341
[0]  97 385
[0] 100 399
[0]  79 316
[0]  88 354
[0]  74 298
[0]  73 294
[0]  66 266
[0]  77 311
[0]  68 275
[0]  89 361
[0]  71 289
[0]  56 228
[0]  98 399
[0]  91 371
[0]  86 351
[0]  49 200
[0]  73 299
[0]  50 205
[0]  85 350
[0]  62 256
[0]  97 401
[0]  79 327
[0]  91 377
[0]  75 311
[0]  88 365
[0] 100 415
[0]  67 279
[0]  84 350
[0]  58 242
[0]  80 334
[0]  79 330
[0]  93 389
[0]  95 398
[0]  52 218
[0]  82 344
[0]  86 361
[0]  91 382
[0]  85 357
[0]  49 206
[0]  52 219
[0]  75 317
[0]  87 368
[0]  98 415
[0]  78 331
[0]  93 395
[0]  92 391
[0]  77 328
[0]  92 392
[0]  49 209
[0]  74 316
[0]  77 329
[0]  74 318
[0]  77 331
[0]  93 400
[0]  52 224
[0]  77 332
[0]  67 289
[0]  92 397
[0]  76 328
[0]  95 410
[0]  47 203
[0]  85 368
[0]  78 338
[0]  85 370
[0]  97 423
[0]  91 397
[0]  77 336
[0]  89 389
[0]  82 359
[0]  96 421
[0]  49 215
[0]  72 316
[0]  92 404
[0]  99 438
[0]  87 385
[0]  97 430
[0]  65 289
[0]  65 289
[0]  96 429
[0]  85 380
[0]  69 309
[0]  98 439
[0]  96 431
[0]  75 337
[0]  91 409
[0]  97 436
[0]  52 234
[0]  94 424
[0]  94 424
[0]  45 203
[0]  77 349
[0]  96 436
[0]  58 264
[0]  64 293
[0]  98 449
[0]  92 423
[0]  61 281
[0]  92 425
[0]  45 208
[0]  90 416
[0]  98 453
[0]  88 407
[0]  85 394
[0]  94 436
[0]  84 391
[0]  93 433
[0]  83 387
[0]  54 253
[0]  48 225
[0]  88 413
[0]  75 352
[0]  79 371
[0]  77 364
[0]  57 270
[0]  78 370
[0]  55 261
[0] 100 475
[0]  99 471
[0]  82 391
[0]  79 378
[0]  98 469
[0]  73 350
[0]  98 470
[0]  59 283
[0]  91 437
[0]  56 269
[0]  89 428
[0]  89 429
[0]  76 367
[0]  96 466
[0]  43 209
[0]  95 462
[0]  61 297
[0]  55 268
[0]  49 239
[0]  53 259
[0]  66 323
[0]  99 485
[0]  81 397
[0]  71 348
[0]  67 329
[0]  85 418
[0]  88 433
[0]  81 399
[0]  88 434
[0]  90 444
[0]  98 485
[0]  64 317
[0]  88 436
[0]  69 342
[0]  92 456
[0]  89 442
[0]  49 244
[0]  61 304
[0]  66 329
[0]  66 330
[0]  73 365
[0]  52 261
[0]  97 487
[0]  91 457
[0]  75 377
[0]  55 277
[0]  55 277
[0]  87 439
[0]  50 253
[0]  60 304
[0]  43 218
[0]  71 360
[0]  68 345
[0]  40 203
[0]  66 336
[0]  98 499
[0]  97 496
[0]  70 359
[0]  76 390
[0]  90 463
[0]  78 402
[0]  48 248
[0]  84 434
[0]  80 414
[0]  45 233
[0]  61 316
[0]  74 385
[0]  41 214
[0]  50 261
[0]  67 351
[0]  60 315
[0]  85 447
[0]  94 495
[0]  91 480
[0]  91 480
[0]  56 297
[0]  78 414
[0]  79 420
[0]  72 383
[0]  76 405
[0]  51 272
[0]  68 363
[0]  88 470
[0]  81 433
[0]  82 439
[0]  78 418
[0]  91 489
[0]  40 215
[0]  42 226
[0]  87 470
[0]  39 211
[0]  74 403
[0]  76 414
[0]  44 242
[0]  46 255
[0]  86 477
[0]  76 423
[0]  51 284
[0]  84 468
[0]  61 340
[0]  39 218
[0]  88 492
[0]  37 207
[0]  85 476
[0]  40 224
[0]  58 325
[0]  56 314
[0]  52 292
[0]  81 456
[0]  58 328
[0]  61 345
[0]  50 283
[0]  56 317
[0]  81 459
[0]  84 477
[0]  81 460
[0]  66 375
[0]  76 432
[0]  45 256
[0]  68 388
[0]  45 258
[0]  49 282
[0]  83 478
[0]  39 225
[0]  45 261
[0]  46 267
[0]  69 402
[0]  53 309
[0]  73 426
[0]  75 438
[0]  38 222
[0]  38 222
[0]  63 369
[0]  82 482
[0]  47 277
[0]  42 249
[0]  60 356
[0]  68 406
[0]  69 412
[0]  63 379
[0]  76 458
[0]  70 422
[0]  66 398
[0]  58 350
[0]  42 254
[0]  52 315
[0]  54 328
[0]  69 420
[0]  72 439
[0]  63 385
[0]  54 330
[0]  34 208
[0]  33 202
[0]  77 472
[0]  36 221
[0]  69 424
[0]  63 388
[0]  60 370
[0]  54 333
[0]  61 377
[0]  38 235
[0]  57 353
[0]  57 354
[0]  60 373
[0]  68 424
[0]  73 456
[0]  55 344
[0]  43 269
[0]  65 408
[0]  44 278
[0]  44 278
[0]  40 253
[0]  71 450
[0]  38 241
[0]  70 445
[0]  53 337
[0]  78 497
[0]  43 275
[0]  49 315
[0]  48 310
[0]  74 478
[0]  60 388
[0]  53 343
[0]  59 382
[0]  77 499
[0]  64 415
[0]  75 487
[0]  50 325
[0]  44 286
[0]  70 455
[0]  37 241
[0]  48 313
[0]  61 399
[0]  59 387
[0]  45 296
[0]  58 382
[0]  46 305
[0]  74 491
[0]  50 332
[0]  31 206
[0]  36 240
[0]  39 260
[0]  55 367
[0]  48 321
[0]  43 288
[0]  30 201
[0]  37 248
[0]  39 262
[0]  48 323
[0]  34 229
[0]  72 485
[0]  51 344
[0]  62 419
[0]  63 426
[0]  70 475
[0]  38 258
[0]  42 286
[0]  39 266
[0]  65 444
[0]  61 417
[0]  61 417
[0]  68 465
[0]  65 445
[0]  73 500
[0]  52 357
[0]  53 364
[0]  63 433
[0]  30 207
[0]  42 290
[0]  35 242
[0]  72 498
[0]  61 422
[0]  52 361
[0]  47 327
[0]  34 237
[0]  30 210
[0]  57 399
[0]  61 428
[0]  60 421
[0]  68 478
[0]  64 450
[0]  53 373
[0]  65 460
[0]  69 489
[0]  56 398
[0]  68 484
[0]  33 235
[0]  54 385
[0]  39 279
[0]  46 330
[0]  68 488
[0]  68 491
[0]  34 246
[0]  55 398
[0]  59 427
[0]  39 284
[0]  60 437
[0]  49 358
[0]  61 447
[0]  56 412
[0]  53 391
[0]  62 458
[0]  31 229
[0]  27 200
[0]  63 467
[0]  50 371
[0]  57 424
[0]  33 246
[0]  63 470
[0]  67 500
[0]  62 464
[0]  32 240
[0]  39 294
[0]  66 498
[0]  63 476
[0]  64 484
[0]  49 371
[0]  66 500
[0]  45 341
[0]  31 235
[0]  36 273
[0]  57 433
[0]  63 479
[0]  38 289
[0]  54 411
[0]  50 381
[0]  38 290
[0]  39 300
[0]  57 439
[0]  37 285
[0]  55 424
[0]  45 348
[0]  47 364
[0]  38 295
[0]  35 272
[0]  53 412
[0]  34 265
[0]  40 312
[0]  41 320
[0]  37 289
[0]  50 391
[0]  43 337
[0]  37 290
[0]  51 401
[0]  53 418
[0]  59 466
[0]  31 245
[0]  46 364
[0]  43 341
[0]  49 389
[0]  26 207
[0]  33 263
[0]  61 487
[0]  30 240
[0]  54 433
[0]  59 474
[0]  55 442
[0]  54 436
[0]  27 218
[0]  53 430
[0]  49 399
[0]  60 490
[0]  60 491
[0]  59 483
[0]  61 500
[0]  35 287
[0]  40 329
[0]  54 445
[0]  39 322
[0]  36 298
[0]  43 356
[0]  35 290
[0]  57 474
[0]  25 208
[0]  57 476
[0]  58 487
[0]  27 227
[0]  44 371
[0]  30 253
[0]  25 212
[0]  54 459
[0]  32 272
[0]  35 300
[0]  54 466
[0]  44 380
[0]  44 381
[0]  51 444
[0]  53 463
[0]  42 367
[0]  27 237
[0]  55 483
[0]  53 466
[0]  44 387
[0]  54 475
[0]  41 361
[0]  44 388
[0]  50 441
[0]  53 468
[0]  44 389
[0]  26 230
[0]  36 319
[0]  32 284
[0]  26 231
[0]  35 311
[0]  52 463
[0]  46 410
[0]  38 340
[0]  48 432
[0]  48 437
[0]  52 474
[0]  34 312
[0]  43 396
[0]  33 304
[0]  40 369
[0]  34 314
[0]  39 363
[0]  53 495
[0]  33 311
[0]  44 415
[0]  52 491
[0]  29 274
[0]  40 381
[0]  49 467
[0]  49 467
[0]  47 450
[0]  22 211
[0]  22 211
[0]  51 491
[0]  43 415
[0]  47 456
[0]  23 224
[0]  50 489
[0]  41 401
[0]  38 372
[0]  24 235
[0]  47 463
[0]  41 404
[0]  44 434
[0]  39 385
[0]  27 267
[0]  48 475
[0]  29 288
[0]  30 298
[0]  43 428
[0]  24 239
[0]  31 309
[0]  45 453
[0]  43 433
[0]  47 474
[0]  29 293
[0]  44 445
[0]  25 253
[0]  43 439
[0]  43 439
[0]  46 470
[0]  41 420
[0]  31 318
[0]  40 411
[0]  20 207
[0]  28 290
[0]  32 333
[0]  39 406
[0]  34 354
[0]  47 492
[0]  47 492
[0]  37 388
[0]  39 409
[0]  38 401
[0]  39 412
[0]  46 486
[0]  35 370
[0]  21 222
[0]  45 476
[0]  31 330
[0]  46 491
[0]  46 492
[0]  37 396
[0]  27 292
[0]  38 416
[0]  43 474
[0]  32 354
[0]  37 410
[0]  32 356
[0]  27 302
[0]  25 281
[0]  41 461
[0]  24 272
[0]  19 217
[0]  18 206
[0]  33 379
[0]  34 392
[0]  33 381
[0]  31 358
[0]  43 498
[0]  41 475
[0]  40 465
[0]  31 361
[0]  38 445
[0]  26 305
[0]  29 341
[0]  22 259
[0]  26 307
[0]  37 439
[0]  28 338
[0]  32 388
[0]  39 473
[0]  17 207
[0]  24 293
[0]  39 477
[0]  40 492
[0]  25 309
[0]  24 298
[0]  21 261
[0]  37 461
[0]  34 424
[0]  19 237
[0]  38 476
[0]  31 389
[0]  32 402
[0]  29 365
[0]  24 304
[0]  16 203
[0]  30 381
[0]  22 280
[0]  28 357
[0]  38 485
[0]  24 308
[0]  34 437
[0]  27 348
[0]  28 364
[0]  35 457
[0]  37 487
[0]  31 410
[0]  24 318
[0]  32 424
[0]  37 492
[0]  28 373
[0]  27 360
[0]  35 467
[0]  28 374
[0]  30 401
[0]  33 443
[0]  15 202
[0]  19 256
[0]  36 489
[0]  27 369
[0]  28 383
[0]  26 356
[0]  30 411
[0]  30 411
[0]  35 482
[0]  23 318
[0]  28 393
[0]  27 379
[0]  20 282
[0]  30 425
[0]  28 397
[0]  27 385
[0]  18 257
[0]  26 376
[0]  33 478
[0]  16 232
[0]  32 468
[0]  16 234
[0]  24 352
[0]  33 488
[0]  19 281
[0]  18 268
[0]  16 239
[0]  32 478
[0]  28 419
[0]  29 434
[0]  29 437
[0]  30 455
[0]  26 395
[0]  20 304
[0]  28 427
[0]  19 290
[0]  21 323
[0]  26 400
[0]  26 404
[0]  25 391
[0]  17 266
[0]  28 440
[0]  22 346
[0]  25 398
[0]  29 462
[0]  25 403
[0]  25 403
[0]  22 355
[0]  13 211
[0]  23 374
[0]  24 392
[0]  15 246
[0]  23 379
[0]  30 499
[0]  21 350
[0]  27 451
[0]  16 268
[0]  15 254
[0]  17 288
[0]  23 391
[0]  13 221
[0]  18 306
[0]  28 477
[0]  20 341
[0]  27 463
[0]  26 446
[0]  25 429
[0]  27 468
[0]  22 383
[0]  18 315
[0]  20 351
[0]  26 459
[0]  21 371
[0]  25 443
[0]  22 391
[0]  24 428
[0]  18 321
[0]  19 341
[0]  23 414
[0]  17 306
[0]  24 438
[0]  22 403
[0]  23 423
[0]  26 479
[0]  11 203
[0]  20 370
[0]  17 315
[0]  26 482
[0]  18 334
[0]  23 431
[0]  20 375
[0]  18 339
[0]  19 360
[0]  21 399
[0]  21 399
[0]  25 477
[0]  15 295
[0]  18 355
[0]  20 395
[0]  16 322
[0]  19 385
[0]  15 305
[0]  18 367
[0]  19 389
[0]  10 205
[0]  22 453
[0]  21 438
[0]  12 251
[0]  19 398
[0]  10 210
[0]  12 252
[0]  15 316
[0]  13 277
[0]  17 364
[0]  16 343
[0]  11 239
[0]  15 326
[0]  22 485
[0]  22 489
[0]  14 312
[0]  15 336
[0]  20 450
[0]  21 479
[0]  15 344
[0]  16 368
[0]  18 416
[0]  15 349
[0]  18 425
[0]  16 378
[0]  11 262
[0]  18 435
[0]  12 291
[0]  16 390
[0]  19 464
[0]  12 298
[0]  20 498
[0]  19 474
[0]  18 450
[0]  15 376
[0]  14 351
[0]  16 402
[0]  19 487
[0]  11 282
[0]  17 445
[0]  15 394
[0]  10 269
[0]  11 298
[0]  15 410
[0]  15 413
[0]  10 283
[0]  13 370
[0]  17 492
[0]  10 290
[0]  15 438
[0]  13 381
[0]  11 326
[0]  10 300
[0]  10 309
[0]  11 346
[0]  11 358
[0]  13 424
[0]  10 328
[0]  15 492
[0]  15 494
[0]  15 497
[0]  11 375
[0]  11 378
[0]  10 346
[0]  13 454
[0]  13 454
[0]  11 386
[0]  11 394
[0]  12 438
[0]  13 481
[0]  13 495
[0]  11 421
[0]  12 461
[0]  10 393
[0]  10 397
[0]  10 404
[0]  11 453
[0]  11 459
[0]  10 441
[0]  10 495
